(set-info :smt-lib-version 2.6)
(set-logic QF_NIA)
(set-info :source |
Generated by: Cristina Borralleras, Daniel Larraz, Albert Oliveras, Enric Rodriguez-Carbonell, Albert Rubio
Generated on: 2017-04-27
Generator: VeryMax
Application: Termination proving
Target solver: barcelogic
|)
(set-info :license "https://creativecommons.org/licenses/by/4.0/")
(set-info :category "industrial")
(set-info :status sat)
(declare-fun Nl2main_a1 () Int)
(declare-fun Nl2main_b1 () Int)
(declare-fun Nl2main_q1 () Int)
(declare-fun lam0n0 () Int)
(declare-fun lam0n1 () Int)
(declare-fun lam0n2 () Int)
(declare-fun lam0n3 () Int)
(declare-fun lam0n4 () Int)
(declare-fun lam0n5 () Int)
(declare-fun Nl2CT1 () Int)
(declare-fun lam1n0 () Int)
(declare-fun lam1n1 () Int)
(declare-fun lam1n2 () Int)
(declare-fun lam1n3 () Int)
(declare-fun lam1n4 () Int)
(declare-fun lam1n5 () Int)
(declare-fun lam2n0 () Int)
(declare-fun lam2n1 () Int)
(declare-fun lam2n2 () Int)
(declare-fun lam2n3 () Int)
(declare-fun lam2n4 () Int)
(declare-fun lam3n0 () Int)
(declare-fun lam3n1 () Int)
(declare-fun lam3n2 () Int)
(declare-fun lam3n3 () Int)
(declare-fun lam3n4 () Int)
(declare-fun lam4n0 () Int)
(declare-fun lam4n1 () Int)
(declare-fun lam4n2 () Int)
(declare-fun lam4n3 () Int)
(declare-fun lam5n0 () Int)
(declare-fun lam5n1 () Int)
(declare-fun lam5n2 () Int)
(declare-fun lam5n3 () Int)
(declare-fun lam6n0 () Int)
(declare-fun lam6n1 () Int)
(declare-fun lam6n2 () Int)
(declare-fun lam6n3 () Int)
(declare-fun lam6n4 () Int)
(declare-fun lam6n5 () Int)
(declare-fun lam6n6 () Int)
(declare-fun lam6n7 () Int)
(declare-fun lam7n0 () Int)
(declare-fun lam7n1 () Int)
(declare-fun lam7n2 () Int)
(declare-fun lam7n3 () Int)
(declare-fun lam7n4 () Int)
(declare-fun lam7n5 () Int)
(declare-fun lam7n6 () Int)
(declare-fun lam8n0 () Int)
(declare-fun lam8n1 () Int)
(declare-fun lam8n2 () Int)
(declare-fun lam8n3 () Int)
(declare-fun lam8n4 () Int)
(declare-fun lam8n5 () Int)
(declare-fun main_a () Int)
(declare-fun main_b () Int)
(declare-fun main_q () Int)
(declare-fun undef5 () Int)
(declare-fun undef6 () Int)
(declare-fun undef4 () Int)
(declare-fun lam12n0 () Int)
(declare-fun lam12n1 () Int)
(declare-fun lam12n2 () Int)
(declare-fun lam12n3 () Int)
(declare-fun lam12n4 () Int)
(declare-fun lam12n5 () Int)
(declare-fun RFN1_CT () Int)
(declare-fun RFN1_main_a () Int)
(declare-fun RFN1_main_b () Int)
(declare-fun RFN1_main_q () Int)
(declare-fun lam16n0 () Int)
(declare-fun lam16n1 () Int)
(declare-fun lam16n2 () Int)
(declare-fun lam16n3 () Int)
(declare-fun lam16n4 () Int)
(declare-fun lam20n0 () Int)
(declare-fun lam20n1 () Int)
(declare-fun lam20n2 () Int)
(declare-fun lam20n3 () Int)
(declare-fun lam10n0 () Int)
(declare-fun lam10n1 () Int)
(declare-fun lam10n2 () Int)
(declare-fun lam10n3 () Int)
(declare-fun lam10n4 () Int)
(declare-fun lam10n5 () Int)
(declare-fun lam11n0 () Int)
(declare-fun lam11n1 () Int)
(declare-fun lam11n2 () Int)
(declare-fun lam11n3 () Int)
(declare-fun lam11n4 () Int)
(declare-fun lam11n5 () Int)
(declare-fun lam14n0 () Int)
(declare-fun lam14n1 () Int)
(declare-fun lam14n2 () Int)
(declare-fun lam14n3 () Int)
(declare-fun lam14n4 () Int)
(declare-fun lam15n0 () Int)
(declare-fun lam15n1 () Int)
(declare-fun lam15n2 () Int)
(declare-fun lam15n3 () Int)
(declare-fun lam15n4 () Int)
(declare-fun lam18n0 () Int)
(declare-fun lam18n1 () Int)
(declare-fun lam18n2 () Int)
(declare-fun lam18n3 () Int)
(declare-fun lam19n0 () Int)
(declare-fun lam19n1 () Int)
(declare-fun lam19n2 () Int)
(declare-fun lam19n3 () Int)
(declare-fun lam9n0 () Int)
(declare-fun lam9n1 () Int)
(declare-fun lam9n2 () Int)
(declare-fun lam9n3 () Int)
(declare-fun lam9n4 () Int)
(declare-fun lam9n5 () Int)
(declare-fun lam13n0 () Int)
(declare-fun lam13n1 () Int)
(declare-fun lam13n2 () Int)
(declare-fun lam13n3 () Int)
(declare-fun lam13n4 () Int)
(declare-fun lam17n0 () Int)
(declare-fun lam17n1 () Int)
(declare-fun lam17n2 () Int)
(declare-fun lam17n3 () Int)
(assert ( and ( <= ( - 4 ) Nl2main_a1 ) ( <= Nl2main_a1 4 ) ( <= ( - 4 ) Nl2main_b1 ) ( <= Nl2main_b1 4 ) ( <= ( - 4 ) Nl2main_q1 ) ( <= Nl2main_q1 4 ) ))
(assert ( or ( and ( >= lam0n0 0 ) ( >= lam0n1 0 ) ( >= lam0n2 0 ) ( >= lam0n3 0 ) ( >= lam0n4 0 ) ( >= lam0n5 0 ) ( > ( + ( * 1 lam0n2 ) ( * 2 lam0n3 ) ( * 5 lam0n4 ) ( * Nl2CT1 lam0n5 ) ( - 1 ) ) 0 ) ( = ( + ( * ( - 1 ) lam0n0 ) ( * ( - 1 ) lam0n3 ) ( * Nl2main_a1 lam0n5 ) ) 0 ) ( = ( + ( * 1 lam0n0 ) ( * ( - 1 ) lam0n1 ) ( * ( - 1 ) lam0n3 ) ( * 1 lam0n4 ) ( * Nl2main_b1 lam0n5 ) ) 0 ) ( = ( + ( * ( - 1 ) lam0n2 ) ( * ( - 1 ) lam0n3 ) ( * ( - 4 ) lam0n4 ) ( * Nl2main_q1 lam0n5 ) ) 0 ) ) ( and ( >= lam1n0 0 ) ( >= lam1n1 0 ) ( >= lam1n2 0 ) ( >= lam1n3 0 ) ( >= lam1n4 0 ) ( >= lam1n5 0 ) ( > ( + ( * 1 lam1n2 ) ( * 2 lam1n3 ) ( * 5 lam1n4 ) ( * Nl2CT1 lam1n5 ) ( - 1 ( + ( + ( + Nl2CT1 ( * Nl2main_a1 0 ) ) ( * Nl2main_b1 0 ) ) ( * Nl2main_q1 ( - 1 ) ) ) ) ) 0 ) ( = ( + ( * ( - 1 ) lam1n0 ) ( * ( - 1 ) lam1n3 ) ( * Nl2main_a1 lam1n5 ) ( - ( + ( + ( + 0 ( * Nl2main_a1 3 ) ) ( * Nl2main_b1 4 ) ) ( * Nl2main_q1 1 ) ) ) ) 0 ) ( = ( + ( * 1 lam1n0 ) ( * ( - 1 ) lam1n1 ) ( * ( - 1 ) lam1n3 ) ( * 1 lam1n4 ) ( * Nl2main_b1 lam1n5 ) ( - ( + ( + 0 ( * Nl2main_a1 ( - 4 ) ) ) ( * Nl2main_b1 3 ) ) ) ) 0 ) ( = ( + ( * ( - 1 ) lam1n2 ) ( * ( - 1 ) lam1n3 ) ( * ( - 4 ) lam1n4 ) ( * Nl2main_q1 lam1n5 ) ( - ( + 0 ( * Nl2main_q1 1 ) ) ) ) 0 ) ) ))
(assert ( or ( and ( >= lam2n0 0 ) ( >= lam2n1 0 ) ( >= lam2n2 0 ) ( >= lam2n3 0 ) ( >= lam2n4 0 ) ( > ( + ( * 1 lam2n1 ) ( * 1 lam2n2 ) ( * 5 lam2n3 ) ( * Nl2CT1 lam2n4 ) ( - 1 ) ) 0 ) ( = ( + ( * ( - 1 ) lam2n0 ) ( * Nl2main_a1 lam2n4 ) ) 0 ) ( = ( + ( * 1 lam2n0 ) ( * 1 lam2n1 ) ( * 1 lam2n3 ) ( * Nl2main_b1 lam2n4 ) ) 0 ) ( = ( + ( * ( - 1 ) lam2n2 ) ( * ( - 4 ) lam2n3 ) ( * Nl2main_q1 lam2n4 ) ) 0 ) ) ( and ( >= lam3n0 0 ) ( >= lam3n1 0 ) ( >= lam3n2 0 ) ( >= lam3n3 0 ) ( >= lam3n4 0 ) ( > ( + ( * 1 lam3n1 ) ( * 1 lam3n2 ) ( * 5 lam3n3 ) ( * Nl2CT1 lam3n4 ) ( - 1 ( + ( + ( + Nl2CT1 ( * Nl2main_a1 0 ) ) ( * Nl2main_b1 0 ) ) ( * Nl2main_q1 ( - 1 ) ) ) ) ) 0 ) ( = ( + ( * ( - 1 ) lam3n0 ) ( * Nl2main_a1 lam3n4 ) ( - ( + ( + ( + 0 ( * Nl2main_a1 3 ) ) ( * Nl2main_b1 4 ) ) ( * Nl2main_q1 1 ) ) ) ) 0 ) ( = ( + ( * 1 lam3n0 ) ( * 1 lam3n1 ) ( * 1 lam3n3 ) ( * Nl2main_b1 lam3n4 ) ( - ( + ( + 0 ( * Nl2main_a1 ( - 4 ) ) ) ( * Nl2main_b1 3 ) ) ) ) 0 ) ( = ( + ( * ( - 1 ) lam3n2 ) ( * ( - 4 ) lam3n3 ) ( * Nl2main_q1 lam3n4 ) ( - ( + 0 ( * Nl2main_q1 1 ) ) ) ) 0 ) ) ))
(assert ( or ( and ( >= lam4n0 0 ) ( >= lam4n1 0 ) ( >= lam4n2 0 ) ( >= lam4n3 0 ) ( > ( + ( * 1 lam4n0 ) ( * 1 lam4n1 ) ( * 5 lam4n2 ) ( * Nl2CT1 lam4n3 ) ( - 1 ) ) 0 ) ( = ( + ( * 1 lam4n0 ) ( * Nl2main_a1 lam4n3 ) ) 0 ) ( = ( + ( * ( - 1 ) lam4n0 ) ( * 1 lam4n2 ) ( * Nl2main_b1 lam4n3 ) ) 0 ) ( = ( + ( * ( - 1 ) lam4n1 ) ( * ( - 4 ) lam4n2 ) ( * Nl2main_q1 lam4n3 ) ) 0 ) ) ( and ( >= lam5n0 0 ) ( >= lam5n1 0 ) ( >= lam5n2 0 ) ( >= lam5n3 0 ) ( > ( + ( * 1 lam5n0 ) ( * 1 lam5n1 ) ( * 5 lam5n2 ) ( * Nl2CT1 lam5n3 ) ( - 1 ( + ( + ( + Nl2CT1 ( * Nl2main_a1 0 ) ) ( * Nl2main_b1 0 ) ) ( * Nl2main_q1 ( - 1 ) ) ) ) ) 0 ) ( = ( + ( * 1 lam5n0 ) ( * Nl2main_a1 lam5n3 ) ( - ( + ( + ( + 0 ( * Nl2main_a1 3 ) ) ( * Nl2main_b1 4 ) ) ( * Nl2main_q1 1 ) ) ) ) 0 ) ( = ( + ( * ( - 1 ) lam5n0 ) ( * 1 lam5n2 ) ( * Nl2main_b1 lam5n3 ) ( - ( + ( + 0 ( * Nl2main_a1 ( - 4 ) ) ) ( * Nl2main_b1 3 ) ) ) ) 0 ) ( = ( + ( * ( - 1 ) lam5n1 ) ( * ( - 4 ) lam5n2 ) ( * Nl2main_q1 lam5n3 ) ( - ( + 0 ( * Nl2main_q1 1 ) ) ) ) 0 ) ) ))
(assert ( or ( and ( <= ( + ( * ( - 1 ) main_a ) main_b ) 0 ) ( <= ( * ( - 1 ) main_b ) 0 ) ( not ( <= main_q 0 ) ) ( not ( <= ( + ( - 1 ) main_a main_b main_q ) 0 ) ) ( not ( <= ( + ( - 4 ) ( * ( - 1 ) main_b ) ( * 4 main_q ) ) 0 ) ) ( = ( + main_a ( * ( - 1 ) undef5 ) ) 0 ) ( = ( + main_b ( * ( - 1 ) undef6 ) ) 0 ) ( = ( + main_q ( * ( - 1 ) undef4 ) ) 0 ) ( <= ( + Nl2CT1 ( * ( + 0 Nl2main_a1 ) main_a ) ( * ( + 0 Nl2main_b1 ) main_b ) ( * ( + 0 Nl2main_q1 ) main_q ) ) 0 ) ) ( and ( <= ( + ( * ( - 1 ) main_a ) main_b ) 0 ) ( not ( <= ( * ( - 1 ) main_b ) 0 ) ) ( not ( <= main_q 0 ) ) ( not ( <= ( + ( - 4 ) ( * ( - 1 ) main_b ) ( * 4 main_q ) ) 0 ) ) ( = ( + main_a ( * ( - 1 ) undef5 ) ) 0 ) ( = ( + main_b ( * ( - 1 ) undef6 ) ) 0 ) ( = ( + main_q ( * ( - 1 ) undef4 ) ) 0 ) ( <= ( + Nl2CT1 ( * ( + 0 Nl2main_a1 ) main_a ) ( * ( + 0 Nl2main_b1 ) main_b ) ( * ( + 0 Nl2main_q1 ) main_q ) ) 0 ) ) ( and ( not ( <= ( + ( * ( - 1 ) main_a ) main_b ) 0 ) ) ( not ( <= main_q 0 ) ) ( not ( <= ( + ( - 4 ) ( * ( - 1 ) main_b ) ( * 4 main_q ) ) 0 ) ) ( = ( + main_a ( * ( - 1 ) undef5 ) ) 0 ) ( = ( + main_b ( * ( - 1 ) undef6 ) ) 0 ) ( = ( + main_q ( * ( - 1 ) undef4 ) ) 0 ) ( <= ( + Nl2CT1 ( * ( + 0 Nl2main_a1 ) main_a ) ( * ( + 0 Nl2main_b1 ) main_b ) ( * ( + 0 Nl2main_q1 ) main_q ) ) 0 ) ) ))
(assert ( or ( and ( and ( and ( >= lam12n0 0 ) ( >= lam12n1 0 ) ( >= lam12n2 0 ) ( >= lam12n3 0 ) ( >= lam12n4 0 ) ( >= lam12n5 0 ) ( > ( + ( * 1 lam12n2 ) ( * 2 lam12n3 ) ( * 5 lam12n4 ) ( * Nl2CT1 lam12n5 ) ( - 1 ( - ( + ( + ( + RFN1_CT ( * RFN1_main_a 0 ) ) ( * RFN1_main_b 0 ) ) ( * RFN1_main_q ( - 1 ) ) ) RFN1_CT ) ) ) 0 ) ( = ( + ( * ( - 1 ) lam12n0 ) ( * ( - 1 ) lam12n3 ) ( * Nl2main_a1 lam12n5 ) ( - ( - ( + ( + ( + 0 ( * RFN1_main_a 3 ) ) ( * RFN1_main_b 4 ) ) ( * RFN1_main_q 1 ) ) RFN1_main_a ) ) ) 0 ) ( = ( + ( * 1 lam12n0 ) ( * ( - 1 ) lam12n1 ) ( * ( - 1 ) lam12n3 ) ( * 1 lam12n4 ) ( * Nl2main_b1 lam12n5 ) ( - ( - ( + ( + 0 ( * RFN1_main_a ( - 4 ) ) ) ( * RFN1_main_b 3 ) ) RFN1_main_b ) ) ) 0 ) ( = ( + ( * ( - 1 ) lam12n2 ) ( * ( - 1 ) lam12n3 ) ( * ( - 4 ) lam12n4 ) ( * Nl2main_q1 lam12n5 ) ( - ( - ( + 0 ( * RFN1_main_q 1 ) ) RFN1_main_q ) ) ) 0 ) ) ( and ( >= lam16n0 0 ) ( >= lam16n1 0 ) ( >= lam16n2 0 ) ( >= lam16n3 0 ) ( >= lam16n4 0 ) ( > ( + ( * 1 lam16n1 ) ( * 1 lam16n2 ) ( * 5 lam16n3 ) ( * Nl2CT1 lam16n4 ) ( - 1 ( - ( + ( + ( + RFN1_CT ( * RFN1_main_a 0 ) ) ( * RFN1_main_b 0 ) ) ( * RFN1_main_q ( - 1 ) ) ) RFN1_CT ) ) ) 0 ) ( = ( + ( * ( - 1 ) lam16n0 ) ( * Nl2main_a1 lam16n4 ) ( - ( - ( + ( + ( + 0 ( * RFN1_main_a 3 ) ) ( * RFN1_main_b 4 ) ) ( * RFN1_main_q 1 ) ) RFN1_main_a ) ) ) 0 ) ( = ( + ( * 1 lam16n0 ) ( * 1 lam16n1 ) ( * 1 lam16n3 ) ( * Nl2main_b1 lam16n4 ) ( - ( - ( + ( + 0 ( * RFN1_main_a ( - 4 ) ) ) ( * RFN1_main_b 3 ) ) RFN1_main_b ) ) ) 0 ) ( = ( + ( * ( - 1 ) lam16n2 ) ( * ( - 4 ) lam16n3 ) ( * Nl2main_q1 lam16n4 ) ( - ( - ( + 0 ( * RFN1_main_q 1 ) ) RFN1_main_q ) ) ) 0 ) ) ( and ( >= lam20n0 0 ) ( >= lam20n1 0 ) ( >= lam20n2 0 ) ( >= lam20n3 0 ) ( > ( + ( * 1 lam20n0 ) ( * 1 lam20n1 ) ( * 5 lam20n2 ) ( * Nl2CT1 lam20n3 ) ( - 1 ( - ( + ( + ( + RFN1_CT ( * RFN1_main_a 0 ) ) ( * RFN1_main_b 0 ) ) ( * RFN1_main_q ( - 1 ) ) ) RFN1_CT ) ) ) 0 ) ( = ( + ( * 1 lam20n0 ) ( * Nl2main_a1 lam20n3 ) ( - ( - ( + ( + ( + 0 ( * RFN1_main_a 3 ) ) ( * RFN1_main_b 4 ) ) ( * RFN1_main_q 1 ) ) RFN1_main_a ) ) ) 0 ) ( = ( + ( * ( - 1 ) lam20n0 ) ( * 1 lam20n2 ) ( * Nl2main_b1 lam20n3 ) ( - ( - ( + ( + 0 ( * RFN1_main_a ( - 4 ) ) ) ( * RFN1_main_b 3 ) ) RFN1_main_b ) ) ) 0 ) ( = ( + ( * ( - 1 ) lam20n1 ) ( * ( - 4 ) lam20n2 ) ( * Nl2main_q1 lam20n3 ) ( - ( - ( + 0 ( * RFN1_main_q 1 ) ) RFN1_main_q ) ) ) 0 ) ) ) ( or ( and ( and ( >= lam10n0 0 ) ( >= lam10n1 0 ) ( >= lam10n2 0 ) ( >= lam10n3 0 ) ( >= lam10n4 0 ) ( >= lam10n5 0 ) ( > ( + ( * 1 lam10n2 ) ( * 2 lam10n3 ) ( * 5 lam10n4 ) ( * Nl2CT1 lam10n5 ) ( - 1 ( - RFN1_CT ) ) ) 0 ) ( = ( + ( * ( - 1 ) lam10n0 ) ( * ( - 1 ) lam10n3 ) ( * Nl2main_a1 lam10n5 ) ( - ( - RFN1_main_a ) ) ) 0 ) ( = ( + ( * 1 lam10n0 ) ( * ( - 1 ) lam10n1 ) ( * ( - 1 ) lam10n3 ) ( * 1 lam10n4 ) ( * Nl2main_b1 lam10n5 ) ( - ( - RFN1_main_b ) ) ) 0 ) ( = ( + ( * ( - 1 ) lam10n2 ) ( * ( - 1 ) lam10n3 ) ( * ( - 4 ) lam10n4 ) ( * Nl2main_q1 lam10n5 ) ( - ( - RFN1_main_q ) ) ) 0 ) ) ( and ( >= lam11n0 0 ) ( >= lam11n1 0 ) ( >= lam11n2 0 ) ( >= lam11n3 0 ) ( >= lam11n4 0 ) ( >= lam11n5 0 ) ( > ( + ( * 1 lam11n2 ) ( * 2 lam11n3 ) ( * 5 lam11n4 ) ( * Nl2CT1 lam11n5 ) ( - 1 ( + ( - ( + ( + ( + RFN1_CT ( * RFN1_main_a 0 ) ) ( * RFN1_main_b 0 ) ) ( * RFN1_main_q ( - 1 ) ) ) RFN1_CT ) 1 ) ) ) 0 ) ( = ( + ( * ( - 1 ) lam11n0 ) ( * ( - 1 ) lam11n3 ) ( * Nl2main_a1 lam11n5 ) ( - ( - ( + ( + ( + 0 ( * RFN1_main_a 3 ) ) ( * RFN1_main_b 4 ) ) ( * RFN1_main_q 1 ) ) RFN1_main_a ) ) ) 0 ) ( = ( + ( * 1 lam11n0 ) ( * ( - 1 ) lam11n1 ) ( * ( - 1 ) lam11n3 ) ( * 1 lam11n4 ) ( * Nl2main_b1 lam11n5 ) ( - ( - ( + ( + 0 ( * RFN1_main_a ( - 4 ) ) ) ( * RFN1_main_b 3 ) ) RFN1_main_b ) ) ) 0 ) ( = ( + ( * ( - 1 ) lam11n2 ) ( * ( - 1 ) lam11n3 ) ( * ( - 4 ) lam11n4 ) ( * Nl2main_q1 lam11n5 ) ( - ( - ( + 0 ( * RFN1_main_q 1 ) ) RFN1_main_q ) ) ) 0 ) ) ) ( and ( and ( >= lam14n0 0 ) ( >= lam14n1 0 ) ( >= lam14n2 0 ) ( >= lam14n3 0 ) ( >= lam14n4 0 ) ( > ( + ( * 1 lam14n1 ) ( * 1 lam14n2 ) ( * 5 lam14n3 ) ( * Nl2CT1 lam14n4 ) ( - 1 ( - RFN1_CT ) ) ) 0 ) ( = ( + ( * ( - 1 ) lam14n0 ) ( * Nl2main_a1 lam14n4 ) ( - ( - RFN1_main_a ) ) ) 0 ) ( = ( + ( * 1 lam14n0 ) ( * 1 lam14n1 ) ( * 1 lam14n3 ) ( * Nl2main_b1 lam14n4 ) ( - ( - RFN1_main_b ) ) ) 0 ) ( = ( + ( * ( - 1 ) lam14n2 ) ( * ( - 4 ) lam14n3 ) ( * Nl2main_q1 lam14n4 ) ( - ( - RFN1_main_q ) ) ) 0 ) ) ( and ( >= lam15n0 0 ) ( >= lam15n1 0 ) ( >= lam15n2 0 ) ( >= lam15n3 0 ) ( >= lam15n4 0 ) ( > ( + ( * 1 lam15n1 ) ( * 1 lam15n2 ) ( * 5 lam15n3 ) ( * Nl2CT1 lam15n4 ) ( - 1 ( + ( - ( + ( + ( + RFN1_CT ( * RFN1_main_a 0 ) ) ( * RFN1_main_b 0 ) ) ( * RFN1_main_q ( - 1 ) ) ) RFN1_CT ) 1 ) ) ) 0 ) ( = ( + ( * ( - 1 ) lam15n0 ) ( * Nl2main_a1 lam15n4 ) ( - ( - ( + ( + ( + 0 ( * RFN1_main_a 3 ) ) ( * RFN1_main_b 4 ) ) ( * RFN1_main_q 1 ) ) RFN1_main_a ) ) ) 0 ) ( = ( + ( * 1 lam15n0 ) ( * 1 lam15n1 ) ( * 1 lam15n3 ) ( * Nl2main_b1 lam15n4 ) ( - ( - ( + ( + 0 ( * RFN1_main_a ( - 4 ) ) ) ( * RFN1_main_b 3 ) ) RFN1_main_b ) ) ) 0 ) ( = ( + ( * ( - 1 ) lam15n2 ) ( * ( - 4 ) lam15n3 ) ( * Nl2main_q1 lam15n4 ) ( - ( - ( + 0 ( * RFN1_main_q 1 ) ) RFN1_main_q ) ) ) 0 ) ) ) ( and ( and ( >= lam18n0 0 ) ( >= lam18n1 0 ) ( >= lam18n2 0 ) ( >= lam18n3 0 ) ( > ( + ( * 1 lam18n0 ) ( * 1 lam18n1 ) ( * 5 lam18n2 ) ( * Nl2CT1 lam18n3 ) ( - 1 ( - RFN1_CT ) ) ) 0 ) ( = ( + ( * 1 lam18n0 ) ( * Nl2main_a1 lam18n3 ) ( - ( - RFN1_main_a ) ) ) 0 ) ( = ( + ( * ( - 1 ) lam18n0 ) ( * 1 lam18n2 ) ( * Nl2main_b1 lam18n3 ) ( - ( - RFN1_main_b ) ) ) 0 ) ( = ( + ( * ( - 1 ) lam18n1 ) ( * ( - 4 ) lam18n2 ) ( * Nl2main_q1 lam18n3 ) ( - ( - RFN1_main_q ) ) ) 0 ) ) ( and ( >= lam19n0 0 ) ( >= lam19n1 0 ) ( >= lam19n2 0 ) ( >= lam19n3 0 ) ( > ( + ( * 1 lam19n0 ) ( * 1 lam19n1 ) ( * 5 lam19n2 ) ( * Nl2CT1 lam19n3 ) ( - 1 ( + ( - ( + ( + ( + RFN1_CT ( * RFN1_main_a 0 ) ) ( * RFN1_main_b 0 ) ) ( * RFN1_main_q ( - 1 ) ) ) RFN1_CT ) 1 ) ) ) 0 ) ( = ( + ( * 1 lam19n0 ) ( * Nl2main_a1 lam19n3 ) ( - ( - ( + ( + ( + 0 ( * RFN1_main_a 3 ) ) ( * RFN1_main_b 4 ) ) ( * RFN1_main_q 1 ) ) RFN1_main_a ) ) ) 0 ) ( = ( + ( * ( - 1 ) lam19n0 ) ( * 1 lam19n2 ) ( * Nl2main_b1 lam19n3 ) ( - ( - ( + ( + 0 ( * RFN1_main_a ( - 4 ) ) ) ( * RFN1_main_b 3 ) ) RFN1_main_b ) ) ) 0 ) ( = ( + ( * ( - 1 ) lam19n1 ) ( * ( - 4 ) lam19n2 ) ( * Nl2main_q1 lam19n3 ) ( - ( - ( + 0 ( * RFN1_main_q 1 ) ) RFN1_main_q ) ) ) 0 ) ) ) ) ) ( or ( and ( >= lam9n0 0 ) ( >= lam9n1 0 ) ( >= lam9n2 0 ) ( >= lam9n3 0 ) ( >= lam9n4 0 ) ( >= lam9n5 0 ) ( > ( + ( * 1 lam9n2 ) ( * 2 lam9n3 ) ( * 5 lam9n4 ) ( * Nl2CT1 lam9n5 ) ( - 1 ) ) 0 ) ( = ( + ( * ( - 1 ) lam9n0 ) ( * ( - 1 ) lam9n3 ) ( * Nl2main_a1 lam9n5 ) ) 0 ) ( = ( + ( * 1 lam9n0 ) ( * ( - 1 ) lam9n1 ) ( * ( - 1 ) lam9n3 ) ( * 1 lam9n4 ) ( * Nl2main_b1 lam9n5 ) ) 0 ) ( = ( + ( * ( - 1 ) lam9n2 ) ( * ( - 1 ) lam9n3 ) ( * ( - 4 ) lam9n4 ) ( * Nl2main_q1 lam9n5 ) ) 0 ) ) ( and ( >= lam13n0 0 ) ( >= lam13n1 0 ) ( >= lam13n2 0 ) ( >= lam13n3 0 ) ( >= lam13n4 0 ) ( > ( + ( * 1 lam13n1 ) ( * 1 lam13n2 ) ( * 5 lam13n3 ) ( * Nl2CT1 lam13n4 ) ( - 1 ) ) 0 ) ( = ( + ( * ( - 1 ) lam13n0 ) ( * Nl2main_a1 lam13n4 ) ) 0 ) ( = ( + ( * 1 lam13n0 ) ( * 1 lam13n1 ) ( * 1 lam13n3 ) ( * Nl2main_b1 lam13n4 ) ) 0 ) ( = ( + ( * ( - 1 ) lam13n2 ) ( * ( - 4 ) lam13n3 ) ( * Nl2main_q1 lam13n4 ) ) 0 ) ) ( and ( >= lam17n0 0 ) ( >= lam17n1 0 ) ( >= lam17n2 0 ) ( >= lam17n3 0 ) ( > ( + ( * 1 lam17n0 ) ( * 1 lam17n1 ) ( * 5 lam17n2 ) ( * Nl2CT1 lam17n3 ) ( - 1 ) ) 0 ) ( = ( + ( * 1 lam17n0 ) ( * Nl2main_a1 lam17n3 ) ) 0 ) ( = ( + ( * ( - 1 ) lam17n0 ) ( * 1 lam17n2 ) ( * Nl2main_b1 lam17n3 ) ) 0 ) ( = ( + ( * ( - 1 ) lam17n1 ) ( * ( - 4 ) lam17n2 ) ( * Nl2main_q1 lam17n3 ) ) 0 ) ) ) ))
(check-sat)
(exit)
